SDVRP instances/custom_instances/p03_10_split0.vrp
NAME:p03_10_split
BEST_KNOWN: 0
COMMENT: 0
DIMENSION: 464
CAPACITY: 200
EDGE_WEIGHT_FORMAT: FUNCTION
EDGE_WEIGHT_TYPE: EXACT_2D
NODE_COORD_SECTION
1 0.00000 0.00000
2 -30 -10
3 -30 -10
4 -30 -10
5 -30 -10
6 -30 -10
7 -30 -10
8 -30 -10
9 -6 -46
10 -6 -46
11 -6 -46
12 -6 -46
13 -6 -46
14 -6 -46
15 -32 -22
16 -32 -22
17 -32 -22
18 -32 -22
19 -32 -22
20 -32 -22
21 -32 -22
22 50 -39
23 50 -39
24 50 -39
25 50 -39
26 50 -39
27 50 -39
28 50 -39
29 7 -18
30 7 -18
31 7 -18
32 7 -18
33 -15 -5
34 -15 -5
35 -15 -5
36 27 -30
37 27 -30
38 27 -30
39 27 -30
40 27 -30
41 27 -30
42 27 -30
43 -6 -39
44 -6 -39
45 -6 -39
46 -6 -39
47 -6 -39
48 1 39
49 1 39
50 1 39
51 1 39
52 1 39
53 42 -47
54 42 -47
55 42 -47
56 42 -47
57 42 -47
58 -44 34
59 -44 34
60 -44 34
61 -44 34
62 -44 34
63 -44 34
64 30 -28
65 30 -28
66 30 -28
67 30 -28
68 30 -28
69 30 -28
70 45 -9
71 45 -9
72 45 -9
73 45 -9
74 45 -9
75 45 -9
76 -38 -25
77 -38 -25
78 -38 -25
79 -38 -25
80 13 -3
81 13 -3
82 -28 23
83 -28 23
84 -28 23
85 -28 23
86 -28 23
87 -7 21
88 -7 21
89 -7 21
90 -7 21
91 -7 21
92 -25 10
93 -25 10
94 -25 10
95 -25 10
96 -25 10
97 -25 10
98 -42 -10
99 -42 -10
100 -42 -10
101 -42 -10
102 28 -18
103 28 -18
104 28 -18
105 28 -18
106 12 -44
107 12 -44
108 -41 6
109 -41 6
110 -41 6
111 -41 6
112 -2 45
113 -2 45
114 -2 45
115 13 44
116 13 44
117 13 44
118 13 44
119 13 44
120 13 44
121 -19 -18
122 -19 -18
123 -19 -18
124 -19 -18
125 -19 -18
126 -42 -42
127 -42 -42
128 -42 -42
129 -42 -42
130 -42 -42
131 26 6
132 26 6
133 26 6
134 -37 15
135 -37 15
136 42 21
137 42 21
138 42 21
139 -24 9
140 -24 9
141 21 -47
142 21 -47
143 19 -37
144 19 -37
145 19 -37
146 19 -37
147 19 -37
148 -19 -38
149 -19 -38
150 -19 -38
151 -19 -38
152 -19 -38
153 50 -41
154 50 -41
155 -13 10
156 -13 10
157 -13 10
158 -22 -44
159 -22 -44
160 -22 -44
161 -22 -44
162 -22 -44
163 -42 19
164 -42 19
165 -42 19
166 -42 19
167 -11 -8
168 -11 -8
169 -11 -8
170 -11 -8
171 -11 -8
172 -11 -8
173 -11 -8
174 -31 45
175 -31 45
176 -31 45
177 -31 45
178 11 34
179 11 34
180 11 34
181 11 34
182 11 34
183 11 34
184 11 34
185 46 30
186 46 30
187 46 30
188 46 30
189 46 30
190 -35 -27
191 -35 -27
192 -35 -27
193 -35 -27
194 -35 -27
195 -35 -27
196 -35 -27
197 -48 3
198 -48 3
199 -48 3
200 43 -31
201 43 -31
202 43 -31
203 37 38
204 37 38
205 15 17
206 15 17
207 15 17
208 15 17
209 15 17
210 -36 24
211 -36 24
212 -14 -22
213 -14 -22
214 -14 -22
215 -14 -22
216 -14 -22
217 -14 -22
218 23 -9
219 23 -9
220 23 -9
221 23 -9
222 23 -9
223 23 -9
224 -34 46
225 -34 46
226 -34 46
227 -34 46
228 27 35
229 27 35
230 27 35
231 38 -6
232 38 -6
233 38 -6
234 38 -6
235 -23 -48
236 -23 -48
237 32 45
238 32 45
239 32 45
240 7 43
241 7 43
242 7 43
243 12 -6
244 12 -6
245 12 -6
246 17 8
247 17 8
248 17 8
249 17 8
250 17 8
251 -47 8
252 -47 8
253 -47 8
254 -47 8
255 -36 -48
256 -36 -48
257 -36 -48
258 -36 -48
259 37 49
260 37 49
261 37 49
262 37 49
263 25 -42
264 25 -42
265 -46 6
266 -46 6
267 -46 6
268 -46 6
269 -46 6
270 -46 6
271 36 34
272 36 34
273 36 34
274 36 34
275 36 34
276 27 -7
277 27 -7
278 27 -7
279 -39 -5
280 -39 -5
281 -39 -5
282 -39 -5
283 -39 -5
284 -39 -5
285 -39 -5
286 35 8
287 35 8
288 35 8
289 35 8
290 35 8
291 35 8
292 14 34
293 14 34
294 14 34
295 1 25
296 1 25
297 1 25
298 1 25
299 1 25
300 1 25
301 -38 -5
302 -38 -5
303 -38 -5
304 -38 -5
305 -38 -5
306 -4 38
307 -4 38
308 -4 38
309 -4 38
310 -4 38
311 -1 -10
312 -1 -10
313 -1 -10
314 -1 -10
315 -1 -10
316 -1 -10
317 -1 -10
318 11 43
319 11 43
320 11 43
321 11 43
322 37 -48
323 37 -48
324 37 -48
325 37 -48
326 12 -47
327 12 -47
328 12 -47
329 -35 18
330 -35 18
331 -35 18
332 -35 18
333 46 -40
334 46 -40
335 46 -40
336 46 -40
337 46 -40
338 46 -40
339 26 -18
340 26 -18
341 26 -18
342 26 -18
343 49 13
344 49 13
345 49 13
346 49 13
347 49 13
348 -37 -36
349 -37 -36
350 -37 -36
351 -37 -36
352 -37 -36
353 -37 -36
354 -37 -36
355 39 -50
356 39 -50
357 39 -50
358 39 -50
359 39 -50
360 39 -50
361 39 -50
362 5 -20
363 5 -20
364 5 -20
365 5 -20
366 48 50
367 48 50
368 48 50
369 48 50
370 48 50
371 0 21
372 0 21
373 0 21
374 0 21
375 0 21
376 0 21
377 30 8
378 30 8
379 30 8
380 30 8
381 30 8
382 30 8
383 -34 -11
384 -34 -11
385 -34 -11
386 -34 -11
387 -34 -11
388 -34 -11
389 -34 -11
390 -34 -11
391 12 36
392 12 36
393 12 36
394 12 36
395 12 36
396 12 36
397 12 36
398 12 36
399 -14 19
400 -14 19
401 -14 19
402 -14 19
403 -14 19
404 -14 19
405 4 42
406 4 42
407 4 42
408 -41 -29
409 -41 -29
410 -41 -29
411 -41 -29
412 -41 -29
413 -41 -29
414 -11 34
415 -11 34
416 -11 34
417 -11 34
418 -11 34
419 -44 -11
420 -44 -11
421 -44 -11
422 -45 -31
423 -45 -31
424 -45 -31
425 -45 -31
426 -45 -31
427 -45 -31
428 49 12
429 49 12
430 49 12
431 -41 -11
432 -41 -11
433 -41 -11
434 19 23
435 19 23
436 19 23
437 19 23
438 19 23
439 19 23
440 19 23
441 -40 -46
442 -40 -46
443 -40 -46
444 32 -45
445 32 -45
446 32 -45
447 13 8
448 13 8
449 13 8
450 13 8
451 13 8
452 13 8
453 13 8
454 -5 44
455 -5 44
456 -5 44
457 -5 44
458 -20 -38
459 -20 -38
460 -20 -38
461 -20 -38
462 -20 -38
463 -20 -38
464 -20 -38
DEMAND_SECTION
1 0
2 40
3 20
4 10
5 2
6 2
7 2
8 2
9 20
10 10
11 2
12 2
13 2
14 2
15 40
16 20
17 10
18 2
19 2
20 2
21 1
22 40
23 10
24 2
25 2
26 2
27 2
28 1
29 40
30 10
31 2
32 2
33 40
34 20
35 2
36 40
37 40
38 2
39 2
40 2
41 2
42 1
43 40
44 2
45 2
46 2
47 2
48 40
49 2
50 2
51 2
52 1
53 40
54 40
55 2
56 2
57 2
58 40
59 2
60 2
61 2
62 2
63 1
64 40
65 40
66 10
67 2
68 2
69 1
70 40
71 40
72 10
73 2
74 2
75 1
76 40
77 20
78 2
79 1
80 40
81 2
82 40
83 20
84 2
85 2
86 2
87 20
88 10
89 2
90 2
91 2
92 40
93 20
94 2
95 2
96 2
97 2
98 40
99 20
100 10
101 1
102 40
103 40
104 2
105 2
106 40
107 40
108 40
109 40
110 10
111 1
112 40
113 40
114 20
115 40
116 20
117 2
118 2
119 2
120 1
121 20
122 10
123 2
124 2
125 1
126 40
127 2
128 2
129 2
130 1
131 40
132 2
133 1
134 40
135 20
136 40
137 10
138 1
139 20
140 10
141 40
142 20
143 40
144 2
145 2
146 2
147 2
148 40
149 2
150 2
151 2
152 1
153 40
154 40
155 40
156 40
157 10
158 40
159 2
160 2
161 2
162 1
163 40
164 20
165 2
166 1
167 40
168 20
169 10
170 2
171 2
172 2
173 1
174 20
175 10
176 2
177 2
178 40
179 40
180 10
181 2
182 2
183 2
184 2
185 40
186 40
187 10
188 2
189 1
190 40
191 20
192 2
193 2
194 2
195 2
196 1
197 40
198 10
199 2
200 40
201 10
202 1
203 40
204 40
205 20
206 2
207 2
208 2
209 1
210 40
211 20
212 40
213 2
214 2
215 2
216 2
217 1
218 40
219 40
220 2
221 2
222 2
223 2
224 40
225 20
226 2
227 2
228 20
229 10
230 1
231 20
232 2
233 2
234 1
235 40
236 10
237 40
238 10
239 2
240 40
241 40
242 20
243 40
244 40
245 2
246 40
247 20
248 10
249 2
250 1
251 40
252 20
253 2
254 2
255 40
256 10
257 2
258 2
259 40
260 40
261 10
262 2
263 40
264 2
265 40
266 20
267 2
268 2
269 2
270 1
271 20
272 10
273 2
274 2
275 1
276 20
277 10
278 2
279 40
280 40
281 2
282 2
283 2
284 2
285 1
286 20
287 10
288 2
289 2
290 2
291 1
292 40
293 10
294 1
295 40
296 20
297 10
298 2
299 2
300 2
301 40
302 20
303 10
304 2
305 2
306 40
307 20
308 10
309 2
310 2
311 20
312 10
313 2
314 2
315 2
316 2
317 1
318 20
319 10
320 2
321 1
322 40
323 10
324 2
325 1
326 40
327 2
328 1
329 20
330 10
331 2
332 2
333 20
334 10
335 2
336 2
337 2
338 2
339 40
340 40
341 2
342 2
343 40
344 20
345 2
346 2
347 2
348 40
349 20
350 10
351 2
352 2
353 2
354 2
355 20
356 10
357 2
358 2
359 2
360 2
361 1
362 40
363 20
364 2
365 1
366 40
367 40
368 10
369 2
370 1
371 40
372 20
373 10
374 2
375 2
376 2
377 40
378 20
379 10
380 2
381 2
382 2
383 40
384 40
385 10
386 2
387 2
388 2
389 2
390 1
391 40
392 40
393 10
394 2
395 2
396 2
397 2
398 1
399 40
400 20
401 10
402 2
403 2
404 1
405 40
406 40
407 2
408 40
409 40
410 10
411 2
412 2
413 1
414 40
415 20
416 2
417 2
418 1
419 40
420 2
421 2
422 20
423 10
424 2
425 2
426 2
427 2
428 20
429 10
430 1
431 40
432 10
433 2
434 40
435 20
436 10
437 2
438 2
439 2
440 1
441 40
442 10
443 1
444 40
445 2
446 2
447 40
448 20
449 2
450 2
451 2
452 2
453 1
454 40
455 40
456 2
457 1
458 40
459 40
460 2
461 2
462 2
463 2
464 1
DEPOT_SECTION
1
-1
EOF