SDVRP instances/custom_instances/p03_10_split0.sol
463 -7 6 3 4 385 387 389 388 386 430 431 432 419 420 418 100 99 98 97 -31 30 144 146 145 143 141 140 321 323 324 443 263 262 -33 34 32 5 1 2 167 166 168 172 170 -40 39 38 37 35 36 41 67 64 63 66 68 65 -76 77 409 407 408 351 347 353 350 349 352 348 -79 80 245 246 438 435 436 433 434 204 208 -86 87 90 89 88 309 306 305 416 414 413 417 415 399 401 403 400 -92 93 96 91 107 108 278 284 283 304 302 -94 95 330 209 210 163 162 165 164 133 134 139 -110 109 251 253 250 252 264 265 268 269 267 266 196 197 198 -112 113 111 455 456 453 454 308 307 -121 122 191 190 194 189 75 78 16 14 18 15 17 19 20 169 171 -123 120 124 461 463 457 459 458 462 150 149 147 151 148 211 215 -138 329 331 328 58 62 60 57 59 61 225 224 226 223 176 174 175 173 -142 325 327 326 105 106 316 310 313 314 311 -153 152 21 27 22 24 23 26 25 199 201 200 104 103 341 340 -155 156 154 84 82 83 85 81 402 398 -179 182 178 183 177 180 181 395 397 390 391 393 396 394 392 -192 195 193 411 412 410 424 421 426 425 422 423 129 127 125 126 128 440 441 442 256 254 257 255 -205 207 206 437 439 259 261 258 260 366 365 369 367 368 -212 214 216 213 460 159 157 160 158 161 234 235 10 8 12 13 11 9 44 42 46 43 45 315 312 -218 101 102 339 338 -222 221 220 217 219 276 277 275 376 380 377 381 132 130 131 248 249 247 -229 227 228 238 237 236 202 203 274 271 270 273 272 -232 231 72 74 73 69 71 70 428 429 427 344 342 343 345 346 -233 230 336 337 334 332 335 333 56 52 53 54 55 354 356 358 359 355 360 357 322 445 444 -240 241 239 404 50 51 47 48 49 296 297 -243 244 242 28 29 364 363 361 362 -292 293 291 118 117 115 116 119 114 317 319 318 320 405 406 298 299 373 -303 300 301 282 280 281 279 384 383 382 -371 370 372 375 374 295 294 447 450 446 452 451 -378 379 287 286 289 288 285 290 137 136 135 188 187 186 185 184 449 448 0 





OBJ=
3149.582
BEST_KNOWN=
0.000